(set-info :smt-lib-version 2.6)
(set-logic UFNIA)
(set-info :source |
Generated by: Geoff Sutcliffe
Generated on: 2026-03-11
Generator: TPTPWorld
Application: Benchmarking automated theorem provers
Time limit: 120.0

These benchmarks are translations from the TPTP Library (Thousands of
Problems for Theorem Provers), see http://www.cs.miami.edu/~tptp/

The TPTP is maintained by Geoff Sutcliffe, and he contributed this
selection of benchmarks to SMT-LIB.  They were exported from the
v9.2.1 realease of TPTP.
|)
(set-info :category "industrial")
(set-info :status unknown)
; SZS status Success
(declare-sort $$unsorted 0)
(declare-sort tptp.uni 0)
(declare-sort tptp.ty 0)
(declare-fun tptp.sort1 (tptp.ty tptp.uni) Bool)
(declare-fun tptp.witness1 (tptp.ty) tptp.uni)
(assert (forall ((A tptp.ty)) (tptp.sort1 A (tptp.witness1 A))))
(declare-fun tptp.int () tptp.ty)
(declare-fun tptp.real () tptp.ty)
(declare-sort tptp.bool1 0)
(declare-fun tptp.bool () tptp.ty)
(declare-fun tptp.true1 () tptp.bool1)
(declare-fun tptp.false1 () tptp.bool1)
(declare-fun tptp.match_bool1 (tptp.ty tptp.bool1 tptp.uni tptp.uni) tptp.uni)
(assert (forall ((A tptp.ty) (X tptp.bool1) (X1 tptp.uni) (X2 tptp.uni)) (tptp.sort1 A (tptp.match_bool1 A X X1 X2))))
(assert (forall ((A tptp.ty) (Z tptp.uni) (Z1 tptp.uni)) (=> (tptp.sort1 A Z) (= (tptp.match_bool1 A tptp.true1 Z Z1) Z))))
(assert (forall ((A tptp.ty) (Z tptp.uni) (Z1 tptp.uni)) (=> (tptp.sort1 A Z1) (= (tptp.match_bool1 A tptp.false1 Z Z1) Z1))))
(assert (not (= tptp.true1 tptp.false1)))
(assert (forall ((U tptp.bool1)) (or (= U tptp.true1) (= U tptp.false1))))
(declare-sort tptp.tuple02 0)
(declare-fun tptp.tuple0 () tptp.ty)
(declare-fun tptp.tuple03 () tptp.tuple02)
(assert (forall ((U tptp.tuple02)) (= U tptp.tuple03)))
(declare-fun tptp.qtmark () tptp.ty)
(declare-sort tptp.char2 0)
(declare-fun tptp.char () tptp.ty)
(declare-fun tptp.zero1 () tptp.char2)
(declare-fun tptp.one1 () tptp.char2)
(declare-fun tptp.match_char1 (tptp.ty tptp.char2 tptp.uni tptp.uni) tptp.uni)
(assert (forall ((A tptp.ty) (X tptp.char2) (X1 tptp.uni) (X2 tptp.uni)) (tptp.sort1 A (tptp.match_char1 A X X1 X2))))
(assert (forall ((A tptp.ty) (Z tptp.uni) (Z1 tptp.uni)) (=> (tptp.sort1 A Z) (= (tptp.match_char1 A tptp.zero1 Z Z1) Z))))
(assert (forall ((A tptp.ty) (Z tptp.uni) (Z1 tptp.uni)) (=> (tptp.sort1 A Z1) (= (tptp.match_char1 A tptp.one1 Z Z1) Z1))))
(assert (not (= tptp.zero1 tptp.one1)))
(assert (forall ((U tptp.char2)) (or (= U tptp.zero1) (= U tptp.one1))))
(declare-sort tptp.regexp1 0)
(declare-fun tptp.regexp () tptp.ty)
(declare-fun tptp.empty1 () tptp.regexp1)
(declare-fun tptp.epsilon1 () tptp.regexp1)
(declare-fun tptp.char3 (tptp.char2) tptp.regexp1)
(declare-fun tptp.alt1 (tptp.regexp1 tptp.regexp1) tptp.regexp1)
(declare-fun tptp.concat1 (tptp.regexp1 tptp.regexp1) tptp.regexp1)
(declare-fun tptp.star1 (tptp.regexp1) tptp.regexp1)
(declare-fun tptp.match_regexp1 (tptp.ty tptp.regexp1 tptp.uni tptp.uni tptp.uni tptp.uni tptp.uni tptp.uni) tptp.uni)
(assert (forall ((A tptp.ty) (X tptp.regexp1) (X1 tptp.uni) (X2 tptp.uni) (X3 tptp.uni) (X4 tptp.uni) (X5 tptp.uni) (X6 tptp.uni)) (tptp.sort1 A (tptp.match_regexp1 A X X1 X2 X3 X4 X5 X6))))
(assert (forall ((A tptp.ty) (Z tptp.uni) (Z1 tptp.uni) (Z2 tptp.uni) (Z3 tptp.uni) (Z4 tptp.uni) (Z5 tptp.uni)) (=> (tptp.sort1 A Z) (= (tptp.match_regexp1 A tptp.empty1 Z Z1 Z2 Z3 Z4 Z5) Z))))
(assert (forall ((A tptp.ty) (Z tptp.uni) (Z1 tptp.uni) (Z2 tptp.uni) (Z3 tptp.uni) (Z4 tptp.uni) (Z5 tptp.uni)) (=> (tptp.sort1 A Z1) (= (tptp.match_regexp1 A tptp.epsilon1 Z Z1 Z2 Z3 Z4 Z5) Z1))))
(assert (forall ((A tptp.ty) (Z tptp.uni) (Z1 tptp.uni) (Z2 tptp.uni) (Z3 tptp.uni) (Z4 tptp.uni) (Z5 tptp.uni) (U tptp.char2)) (=> (tptp.sort1 A Z2) (= (tptp.match_regexp1 A (tptp.char3 U) Z Z1 Z2 Z3 Z4 Z5) Z2))))
(assert (forall ((A tptp.ty) (Z tptp.uni) (Z1 tptp.uni) (Z2 tptp.uni) (Z3 tptp.uni) (Z4 tptp.uni) (Z5 tptp.uni) (U tptp.regexp1) (U1 tptp.regexp1)) (=> (tptp.sort1 A Z3) (= (tptp.match_regexp1 A (tptp.alt1 U U1) Z Z1 Z2 Z3 Z4 Z5) Z3))))
(assert (forall ((A tptp.ty) (Z tptp.uni) (Z1 tptp.uni) (Z2 tptp.uni) (Z3 tptp.uni) (Z4 tptp.uni) (Z5 tptp.uni) (U tptp.regexp1) (U1 tptp.regexp1)) (=> (tptp.sort1 A Z4) (= (tptp.match_regexp1 A (tptp.concat1 U U1) Z Z1 Z2 Z3 Z4 Z5) Z4))))
(assert (forall ((A tptp.ty) (Z tptp.uni) (Z1 tptp.uni) (Z2 tptp.uni) (Z3 tptp.uni) (Z4 tptp.uni) (Z5 tptp.uni) (U tptp.regexp1)) (=> (tptp.sort1 A Z5) (= (tptp.match_regexp1 A (tptp.star1 U) Z Z1 Z2 Z3 Z4 Z5) Z5))))
(assert (not (= tptp.empty1 tptp.epsilon1)))
(assert (forall ((V tptp.char2)) (not (= tptp.empty1 (tptp.char3 V)))))
(assert (forall ((V tptp.regexp1) (V1 tptp.regexp1)) (not (= tptp.empty1 (tptp.alt1 V V1)))))
(assert (forall ((V tptp.regexp1) (V1 tptp.regexp1)) (not (= tptp.empty1 (tptp.concat1 V V1)))))
(assert (forall ((V tptp.regexp1)) (not (= tptp.empty1 (tptp.star1 V)))))
(assert (forall ((V tptp.char2)) (not (= tptp.epsilon1 (tptp.char3 V)))))
(assert (forall ((V tptp.regexp1) (V1 tptp.regexp1)) (not (= tptp.epsilon1 (tptp.alt1 V V1)))))
(assert (forall ((V tptp.regexp1) (V1 tptp.regexp1)) (not (= tptp.epsilon1 (tptp.concat1 V V1)))))
(assert (forall ((V tptp.regexp1)) (not (= tptp.epsilon1 (tptp.star1 V)))))
(assert (forall ((U tptp.char2) (V tptp.regexp1) (V1 tptp.regexp1)) (not (= (tptp.char3 U) (tptp.alt1 V V1)))))
(assert (forall ((U tptp.char2) (V tptp.regexp1) (V1 tptp.regexp1)) (not (= (tptp.char3 U) (tptp.concat1 V V1)))))
(assert (forall ((U tptp.char2) (V tptp.regexp1)) (not (= (tptp.char3 U) (tptp.star1 V)))))
(assert (forall ((U tptp.regexp1) (U1 tptp.regexp1) (V tptp.regexp1) (V1 tptp.regexp1)) (not (= (tptp.alt1 U U1) (tptp.concat1 V V1)))))
(assert (forall ((U tptp.regexp1) (U1 tptp.regexp1) (V tptp.regexp1)) (not (= (tptp.alt1 U U1) (tptp.star1 V)))))
(assert (forall ((U tptp.regexp1) (U1 tptp.regexp1) (V tptp.regexp1)) (not (= (tptp.concat1 U U1) (tptp.star1 V)))))
(declare-fun tptp.char_proj_11 (tptp.regexp1) tptp.char2)
(assert (forall ((U tptp.char2)) (= (tptp.char_proj_11 (tptp.char3 U)) U)))
(declare-fun tptp.alt_proj_11 (tptp.regexp1) tptp.regexp1)
(assert (forall ((U tptp.regexp1) (U1 tptp.regexp1)) (= (tptp.alt_proj_11 (tptp.alt1 U U1)) U)))
(declare-fun tptp.alt_proj_21 (tptp.regexp1) tptp.regexp1)
(assert (forall ((U tptp.regexp1) (U1 tptp.regexp1)) (= (tptp.alt_proj_21 (tptp.alt1 U U1)) U1)))
(declare-fun tptp.concat_proj_11 (tptp.regexp1) tptp.regexp1)
(assert (forall ((U tptp.regexp1) (U1 tptp.regexp1)) (= (tptp.concat_proj_11 (tptp.concat1 U U1)) U)))
(declare-fun tptp.concat_proj_21 (tptp.regexp1) tptp.regexp1)
(assert (forall ((U tptp.regexp1) (U1 tptp.regexp1)) (= (tptp.concat_proj_21 (tptp.concat1 U U1)) U1)))
(declare-fun tptp.star_proj_11 (tptp.regexp1) tptp.regexp1)
(assert (forall ((U tptp.regexp1)) (= (tptp.star_proj_11 (tptp.star1 U)) U)))
(assert (forall ((U tptp.regexp1)) (or (= U tptp.empty1) (= U tptp.epsilon1) (= U (tptp.char3 (tptp.char_proj_11 U))) (= U (tptp.alt1 (tptp.alt_proj_11 U) (tptp.alt_proj_21 U))) (= U (tptp.concat1 (tptp.concat_proj_11 U) (tptp.concat_proj_21 U))) (= U (tptp.star1 (tptp.star_proj_11 U))))))
(declare-fun tptp.list (tptp.ty) tptp.ty)
(declare-fun tptp.nil (tptp.ty) tptp.uni)
(assert (forall ((A tptp.ty)) (tptp.sort1 (tptp.list A) (tptp.nil A))))
(declare-fun tptp.cons (tptp.ty tptp.uni tptp.uni) tptp.uni)
(assert (forall ((A tptp.ty) (X tptp.uni) (X1 tptp.uni)) (tptp.sort1 (tptp.list A) (tptp.cons A X X1))))
(declare-fun tptp.match_list (tptp.ty tptp.ty tptp.uni tptp.uni tptp.uni) tptp.uni)
(assert (forall ((A tptp.ty) (A1 tptp.ty) (X tptp.uni) (X1 tptp.uni) (X2 tptp.uni)) (tptp.sort1 A1 (tptp.match_list A1 A X X1 X2))))
(assert (forall ((A tptp.ty) (A1 tptp.ty) (Z tptp.uni) (Z1 tptp.uni)) (=> (tptp.sort1 A1 Z) (= (tptp.match_list A1 A (tptp.nil A) Z Z1) Z))))
(assert (forall ((A tptp.ty) (A1 tptp.ty) (Z tptp.uni) (Z1 tptp.uni) (U tptp.uni) (U1 tptp.uni)) (=> (tptp.sort1 A1 Z1) (= (tptp.match_list A1 A (tptp.cons A U U1) Z Z1) Z1))))
(assert (forall ((A tptp.ty) (V tptp.uni) (V1 tptp.uni)) (not (= (tptp.nil A) (tptp.cons A V V1)))))
(declare-fun tptp.cons_proj_1 (tptp.ty tptp.uni) tptp.uni)
(assert (forall ((A tptp.ty) (X tptp.uni)) (tptp.sort1 A (tptp.cons_proj_1 A X))))
(assert (forall ((A tptp.ty) (U tptp.uni) (U1 tptp.uni)) (=> (tptp.sort1 A U) (= (tptp.cons_proj_1 A (tptp.cons A U U1)) U))))
(declare-fun tptp.cons_proj_2 (tptp.ty tptp.uni) tptp.uni)
(assert (forall ((A tptp.ty) (X tptp.uni)) (tptp.sort1 (tptp.list A) (tptp.cons_proj_2 A X))))
(assert (forall ((A tptp.ty) (U tptp.uni) (U1 tptp.uni)) (= (tptp.cons_proj_2 A (tptp.cons A U U1)) U1)))
(assert (forall ((A tptp.ty) (U tptp.uni)) (or (= U (tptp.nil A)) (= U (tptp.cons A (tptp.cons_proj_1 A U) (tptp.cons_proj_2 A U))))))
(declare-fun tptp.infix_plpl (tptp.ty tptp.uni tptp.uni) tptp.uni)
(assert (forall ((A tptp.ty) (X tptp.uni) (X1 tptp.uni)) (tptp.sort1 (tptp.list A) (tptp.infix_plpl A X X1))))
(assert (forall ((A tptp.ty) (L2 tptp.uni)) (and (= (tptp.infix_plpl A (tptp.nil A) L2) L2) (forall ((X tptp.uni) (X1 tptp.uni)) (= (tptp.infix_plpl A (tptp.cons A X X1) L2) (tptp.cons A X (tptp.infix_plpl A X1 L2)))))))
(assert (forall ((A tptp.ty) (L1 tptp.uni) (L2 tptp.uni) (L3 tptp.uni)) (= (tptp.infix_plpl A L1 (tptp.infix_plpl A L2 L3)) (tptp.infix_plpl A (tptp.infix_plpl A L1 L2) L3))))
(assert (forall ((A tptp.ty) (L tptp.uni)) (= (tptp.infix_plpl A L (tptp.nil A)) L)))
(assert (forall ((X Int) (Y Int) (Z Int)) (=> (<= X Y) (=> (<= 0 Z) (<= (* X Z) (* Y Z))))))
(declare-fun tptp.length1 (tptp.ty tptp.uni) Int)
(assert (forall ((A tptp.ty)) (and (= (tptp.length1 A (tptp.nil A)) 0) (forall ((X tptp.uni) (X1 tptp.uni)) (= (tptp.length1 A (tptp.cons A X X1)) (+ 1 (tptp.length1 A X1)))))))
(assert (forall ((A tptp.ty) (L tptp.uni)) (<= 0 (tptp.length1 A L))))
(assert (forall ((A tptp.ty) (L tptp.uni)) (= (= (tptp.length1 A L) 0) (= L (tptp.nil A)))))
(assert (forall ((A tptp.ty) (L1 tptp.uni) (L2 tptp.uni)) (= (tptp.length1 A (tptp.infix_plpl A L1 L2)) (+ (tptp.length1 A L1) (tptp.length1 A L2)))))
(declare-fun tptp.mem (tptp.ty tptp.uni tptp.uni) Bool)
(assert (forall ((A tptp.ty) (X tptp.uni)) (=> (tptp.sort1 A X) (and (not (tptp.mem A X (tptp.nil A))) (forall ((X1 tptp.uni) (X2 tptp.uni)) (=> (tptp.sort1 A X1) (= (tptp.mem A X (tptp.cons A X1 X2)) (or (= X X1) (tptp.mem A X X2)))))))))
(assert (forall ((A tptp.ty) (X tptp.uni) (L1 tptp.uni) (L2 tptp.uni)) (= (tptp.mem A X (tptp.infix_plpl A L1 L2)) (or (tptp.mem A X L1) (tptp.mem A X L2)))))
(assert (forall ((A tptp.ty) (X tptp.uni) (L tptp.uni)) (=> (tptp.mem A X L) (exists ((L1 tptp.uni) (L2 tptp.uni)) (let ((_let_1 (tptp.list A))) (and (tptp.sort1 _let_1 L1) (tptp.sort1 _let_1 L2) (= L (tptp.infix_plpl A L1 (tptp.cons A X L2)))))))))
(declare-sort tptp.list_char 0)
(declare-fun tptp.mem2 (tptp.list_char tptp.regexp1) Bool)
(declare-fun tptp.t2tb (tptp.list_char) tptp.uni)
(assert (forall ((X tptp.list_char)) (tptp.sort1 (tptp.list tptp.char) (tptp.t2tb X))))
(declare-fun tptp.tb2t (tptp.uni) tptp.list_char)
(assert (forall ((I tptp.list_char)) (= (tptp.tb2t (tptp.t2tb I)) I)))
(assert (forall ((J tptp.uni)) (= (tptp.t2tb (tptp.tb2t J)) J)))
(assert (tptp.mem2 (tptp.tb2t (tptp.nil tptp.char)) tptp.epsilon1))
(declare-fun tptp.t2tb1 (tptp.char2) tptp.uni)
(assert (forall ((X tptp.char2)) (tptp.sort1 tptp.char (tptp.t2tb1 X))))
(declare-fun tptp.tb2t1 (tptp.uni) tptp.char2)
(assert (forall ((I tptp.char2)) (= (tptp.tb2t1 (tptp.t2tb1 I)) I)))
(assert (forall ((J tptp.uni)) (=> (tptp.sort1 tptp.char J) (= (tptp.t2tb1 (tptp.tb2t1 J)) J))))
(assert (forall ((C tptp.char2)) (tptp.mem2 (tptp.tb2t (tptp.cons tptp.char (tptp.t2tb1 C) (tptp.nil tptp.char))) (tptp.char3 C))))
(assert (forall ((W tptp.list_char) (R1 tptp.regexp1) (R2 tptp.regexp1)) (=> (tptp.mem2 W R1) (tptp.mem2 W (tptp.alt1 R1 R2)))))
(assert (forall ((W tptp.list_char) (R1 tptp.regexp1) (R2 tptp.regexp1)) (=> (tptp.mem2 W R2) (tptp.mem2 W (tptp.alt1 R1 R2)))))
(assert (forall ((W1 tptp.list_char) (W2 tptp.list_char) (R1 tptp.regexp1) (R2 tptp.regexp1)) (=> (tptp.mem2 W1 R1) (=> (tptp.mem2 W2 R2) (tptp.mem2 (tptp.tb2t (tptp.infix_plpl tptp.char (tptp.t2tb W1) (tptp.t2tb W2))) (tptp.concat1 R1 R2))))))
(assert (forall ((R tptp.regexp1)) (tptp.mem2 (tptp.tb2t (tptp.nil tptp.char)) (tptp.star1 R))))
(assert (forall ((W1 tptp.list_char) (W2 tptp.list_char) (R tptp.regexp1)) (let ((_let_1 (tptp.star1 R))) (=> (tptp.mem2 W1 R) (=> (tptp.mem2 W2 _let_1) (tptp.mem2 (tptp.tb2t (tptp.infix_plpl tptp.char (tptp.t2tb W1) (tptp.t2tb W2))) _let_1))))))
(assert (forall ((Z tptp.list_char) (Z1 tptp.regexp1)) (=> (tptp.mem2 Z Z1) (or (and (= Z (tptp.tb2t (tptp.nil tptp.char))) (= Z1 tptp.epsilon1)) (exists ((C tptp.char2)) (and (= Z (tptp.tb2t (tptp.cons tptp.char (tptp.t2tb1 C) (tptp.nil tptp.char)))) (= Z1 (tptp.char3 C)))) (exists ((W tptp.list_char) (R1 tptp.regexp1) (R2 tptp.regexp1)) (and (tptp.mem2 W R1) (= Z W) (= Z1 (tptp.alt1 R1 R2)))) (exists ((W tptp.list_char) (R1 tptp.regexp1) (R2 tptp.regexp1)) (and (tptp.mem2 W R2) (= Z W) (= Z1 (tptp.alt1 R1 R2)))) (exists ((W1 tptp.list_char) (W2 tptp.list_char) (R1 tptp.regexp1) (R2 tptp.regexp1)) (and (tptp.mem2 W1 R1) (tptp.mem2 W2 R2) (= Z (tptp.tb2t (tptp.infix_plpl tptp.char (tptp.t2tb W1) (tptp.t2tb W2)))) (= Z1 (tptp.concat1 R1 R2)))) (exists ((R tptp.regexp1)) (and (= Z (tptp.tb2t (tptp.nil tptp.char))) (= Z1 (tptp.star1 R)))) (exists ((W1 tptp.list_char) (W2 tptp.list_char) (R tptp.regexp1)) (let ((_let_1 (tptp.star1 R))) (and (tptp.mem2 W1 R) (tptp.mem2 W2 _let_1) (= Z (tptp.tb2t (tptp.infix_plpl tptp.char (tptp.t2tb W1) (tptp.t2tb W2)))) (= Z1 _let_1))))))))
(declare-fun tptp.option (tptp.ty) tptp.ty)
(declare-fun tptp.none (tptp.ty) tptp.uni)
(assert (forall ((A tptp.ty)) (tptp.sort1 (tptp.option A) (tptp.none A))))
(declare-fun tptp.some (tptp.ty tptp.uni) tptp.uni)
(assert (forall ((A tptp.ty) (X tptp.uni)) (tptp.sort1 (tptp.option A) (tptp.some A X))))
(declare-fun tptp.match_option1 (tptp.ty tptp.ty tptp.uni tptp.uni tptp.uni) tptp.uni)
(assert (forall ((A tptp.ty) (A1 tptp.ty) (X tptp.uni) (X1 tptp.uni) (X2 tptp.uni)) (tptp.sort1 A1 (tptp.match_option1 A1 A X X1 X2))))
(assert (forall ((A tptp.ty) (A1 tptp.ty) (Z tptp.uni) (Z1 tptp.uni)) (=> (tptp.sort1 A1 Z) (= (tptp.match_option1 A1 A (tptp.none A) Z Z1) Z))))
(assert (forall ((A tptp.ty) (A1 tptp.ty) (Z tptp.uni) (Z1 tptp.uni) (U tptp.uni)) (=> (tptp.sort1 A1 Z1) (= (tptp.match_option1 A1 A (tptp.some A U) Z Z1) Z1))))
(assert (forall ((A tptp.ty) (V tptp.uni)) (not (= (tptp.none A) (tptp.some A V)))))
(declare-fun tptp.some_proj_11 (tptp.ty tptp.uni) tptp.uni)
(assert (forall ((A tptp.ty) (X tptp.uni)) (tptp.sort1 A (tptp.some_proj_11 A X))))
(assert (forall ((A tptp.ty) (U tptp.uni)) (=> (tptp.sort1 A U) (= (tptp.some_proj_11 A (tptp.some A U)) U))))
(assert (forall ((A tptp.ty) (U tptp.uni)) (=> (tptp.sort1 (tptp.option A) U) (or (= U (tptp.none A)) (= U (tptp.some A (tptp.some_proj_11 A U)))))))
(declare-sort tptp.stream1 0)
(declare-fun tptp.stream () tptp.ty)
(declare-fun tptp.mk_stream1 (tptp.list_char) tptp.stream1)
(declare-fun tptp.state1 (tptp.stream1) tptp.list_char)
(assert (forall ((U tptp.list_char)) (= (tptp.state1 (tptp.mk_stream1 U)) U)))
(assert (forall ((U tptp.stream1)) (= U (tptp.mk_stream1 (tptp.state1 U)))))
(assert (let ((_let_1 (tptp.char3 tptp.one1))) (not (tptp.mem2 (tptp.tb2t (tptp.nil tptp.char)) (tptp.concat1 (tptp.star1 (tptp.alt1 (tptp.char3 tptp.zero1) _let_1)) _let_1)))))
(assert (forall ((W tptp.list_char)) (tptp.mem2 W (tptp.star1 (tptp.alt1 (tptp.char3 tptp.zero1) (tptp.char3 tptp.one1))))))
(assert (forall ((W tptp.list_char)) (let ((_let_1 (tptp.char3 tptp.one1))) (= (tptp.mem2 W (tptp.concat1 (tptp.star1 (tptp.alt1 (tptp.char3 tptp.zero1) _let_1)) _let_1)) (exists ((Wqt tptp.list_char)) (= W (tptp.tb2t (tptp.infix_plpl tptp.char (tptp.t2tb Wqt) (tptp.cons tptp.char (tptp.t2tb1 tptp.one1) (tptp.nil tptp.char))))))))))
(assert (forall ((W tptp.list_char)) (let ((_let_1 (tptp.char3 tptp.one1))) (let ((_let_2 (tptp.concat1 (tptp.star1 (tptp.alt1 (tptp.char3 tptp.zero1) _let_1)) _let_1))) (= (tptp.mem2 W _let_2) (tptp.mem2 (tptp.tb2t (tptp.cons tptp.char (tptp.t2tb1 tptp.zero1) (tptp.t2tb W))) _let_2))))))
(assert (forall ((W tptp.list_char)) (let ((_let_1 (tptp.char3 tptp.one1))) (let ((_let_2 (tptp.concat1 (tptp.star1 (tptp.alt1 (tptp.char3 tptp.zero1) _let_1)) _let_1))) (= (tptp.mem2 W (tptp.alt1 tptp.epsilon1 _let_2)) (tptp.mem2 (tptp.tb2t (tptp.cons tptp.char (tptp.t2tb1 tptp.one1) (tptp.t2tb W))) _let_2))))))
(assert (forall ((W tptp.list_char)) (let ((_let_1 (tptp.char3 tptp.one1))) (let ((_let_2 (tptp.concat1 (tptp.star1 (tptp.alt1 (tptp.char3 tptp.zero1) _let_1)) _let_1))) (= (tptp.mem2 W _let_2) (tptp.mem2 (tptp.tb2t (tptp.cons tptp.char (tptp.t2tb1 tptp.zero1) (tptp.t2tb W))) (tptp.alt1 tptp.epsilon1 _let_2)))))))
(assert (not (forall ((W tptp.list_char)) (let ((_let_1 (tptp.char3 tptp.one1))) (let ((_let_2 (tptp.alt1 tptp.epsilon1 (tptp.concat1 (tptp.star1 (tptp.alt1 (tptp.char3 tptp.zero1) _let_1)) _let_1)))) (= (tptp.mem2 W _let_2) (tptp.mem2 (tptp.tb2t (tptp.cons tptp.char (tptp.t2tb1 tptp.one1) (tptp.t2tb W))) _let_2)))))))
(check-sat)
(exit)
